(declare-fun var0 () String)
(assert (str.in.re var0 (re.++ (re.* (re.* (str.to.re "GG"))) (re.++ (re.+ (re.union (str.to.re "EE") (str.to.re "FF"))) (re.++ (re.+ (re.union (str.to.re "CCC") (str.to.re "DDD"))) (re.++ (re.union (re.union (str.to.re "zz") (str.to.re "AA")) (re.+ (str.to.re "B"))) (re.++ (re.+ (re.+ (str.to.re "y"))) (re.++ (re.* (re.* (str.to.re "x"))) (re.++ (re.union (re.union (str.to.re "uuu") (str.to.re "vvv")) (re.+ (str.to.re "www"))) (re.++ (re.* (re.+ (str.to.re "ttt"))) (re.++ (re.+ (re.* (str.to.re "s"))) (re.++ (re.+ (re.+ (str.to.re "r"))) (re.++ (re.* (re.* (str.to.re "qqq"))) (re.++ (re.+ (re.union (str.to.re "ooo") (str.to.re "ppp"))) (re.++ (re.* (re.+ (str.to.re "nnn"))) (re.++ (re.union (re.* (str.to.re "lll")) (re.* (str.to.re "m"))) (re.++ (re.+ (re.+ (str.to.re "k"))) (re.++ (re.union (re.union (str.to.re "h") (str.to.re "i")) (re.+ (str.to.re "j"))) (re.++ (re.+ (re.* (str.to.re "gg"))) (re.++ (re.* (re.* (str.to.re "fff"))) (re.++ (re.+ (re.* (str.to.re "e"))) (re.++ (re.* (re.* (str.to.re "ddd"))) (re.++ (re.* (re.* (str.to.re "ccc"))) (re.++ (re.+ (re.union (str.to.re "aaa") (str.to.re "b"))) (re.++ (re.union (re.+ (str.to.re "777")) (re.union (str.to.re "888") (str.to.re "9"))) (re.++ (re.* (re.* (str.to.re "66"))) (re.++ (re.union (re.union (str.to.re "33") (str.to.re "444")) (re.+ (str.to.re "555"))) (re.++ (re.union (re.* (str.to.re "1")) (re.* (str.to.re "2"))) (re.+ (re.* (str.to.re "00")))))))))))))))))))))))))))))))
(check-sat)